p edge 360 1800
e 1 79
e 1 176
e 1 247
e 1 300
e 1 331
e 2 145
e 2 149
e 2 150
e 2 177
e 2 190
e 3 57
e 3 64
e 3 83
e 3 195
e 3 207
e 4 97
e 4 121
e 4 159
e 4 222
e 4 264
e 5 29
e 5 108
e 5 163
e 5 230
e 5 276
e 6 88
e 6 143
e 6 178
e 6 262
e 6 291
e 7 104
e 7 126
e 7 199
e 7 213
e 7 346
e 8 35
e 8 89
e 8 115
e 8 149
e 8 281
e 9 206
e 9 227
e 9 290
e 9 292
e 9 312
e 10 35
e 10 68
e 10 76
e 10 100
e 10 282
e 11 117
e 11 156
e 11 192
e 11 238
e 11 331
e 12 89
e 12 102
e 12 184
e 12 186
e 12 252
e 13 2
e 13 54
e 13 94
e 13 188
e 13 285
e 14 5
e 14 67
e 14 193
e 14 292
e 14 332
e 15 55
e 15 89
e 15 217
e 15 263
e 15 267
e 16 75
e 16 237
e 16 246
e 16 321
e 16 352
e 17 39
e 17 136
e 17 155
e 17 188
e 17 230
e 18 24
e 18 76
e 18 159
e 18 275
e 18 305
e 19 12
e 19 36
e 19 186
e 19 243
e 19 338
e 20 33
e 20 110
e 20 188
e 20 216
e 20 263
e 21 24
e 21 217
e 21 247
e 21 317
e 21 357
e 22 3
e 22 54
e 22 88
e 22 123
e 22 148
e 23 84
e 23 158
e 23 220
e 23 222
e 23 340
e 24 85
e 24 172
e 24 173
e 24 239
e 24 266
e 25 93
e 25 109
e 25 113
e 25 155
e 25 211
e 26 67
e 26 123
e 26 132
e 26 302
e 26 308
e 27 15
e 27 149
e 27 151
e 27 153
e 27 191
e 28 46
e 28 140
e 28 179
e 28 184
e 28 336
e 29 35
e 29 95
e 29 263
e 29 282
e 29 294
e 30 122
e 30 208
e 30 217
e 30 300
e 30 342
e 31 95
e 31 187
e 31 216
e 31 300
e 31 330
e 32 179
e 32 209
e 32 235
e 32 300
e 32 359
e 33 87
e 33 200
e 33 236
e 33 287
e 33 322
e 34 33
e 34 142
e 34 177
e 34 290
e 34 304
e 35 22
e 35 92
e 35 199
e 35 204
e 35 211
e 36 23
e 36 34
e 36 61
e 36 121
e 36 299
e 37 33
e 37 68
e 37 122
e 37 177
e 37 228
e 38 24
e 38 61
e 38 62
e 38 116
e 38 277
e 39 77
e 39 81
e 39 82
e 39 216
e 39 262
e 40 137
e 40 161
e 40 178
e 40 208
e 40 266
e 41 64
e 41 161
e 41 169
e 41 268
e 41 353
e 42 155
e 42 168
e 42 182
e 42 248
e 42 316
e 43 19
e 43 25
e 43 48
e 43 131
e 43 146
e 44 40
e 44 81
e 44 207
e 44 302
e 44 334
e 45 21
e 45 88
e 45 165
e 45 314
e 45 327
e 46 65
e 46 103
e 46 111
e 46 230
e 46 260
e 47 27
e 47 145
e 47 161
e 47 297
e 47 317
e 48 95
e 48 144
e 48 158
e 48 177
e 48 234
e 49 151
e 49 185
e 49 272
e 49 317
e 49 330
e 50 6
e 50 190
e 50 261
e 50 263
e 50 298
e 51 48
e 51 262
e 51 321
e 51 336
e 51 346
e 52 107
e 52 190
e 52 258
e 52 298
e 52 319
e 53 29
e 53 47
e 53 59
e 53 74
e 53 143
e 54 12
e 54 93
e 54 133
e 54 308
e 54 333
e 55 109
e 55 134
e 55 201
e 55 295
e 55 302
e 56 6
e 56 92
e 56 114
e 56 158
e 56 317
e 57 13
e 57 114
e 57 235
e 57 251
e 57 257
e 58 47
e 58 136
e 58 153
e 58 195
e 58 304
e 59 28
e 59 37
e 59 52
e 59 72
e 59 349
e 60 15
e 60 51
e 60 84
e 60 262
e 60 308
e 61 193
e 61 209
e 61 224
e 61 292
e 61 320
e 62 29
e 62 77
e 62 277
e 62 297
e 62 301
e 63 50
e 63 83
e 63 110
e 63 173
e 63 207
e 64 46
e 64 107
e 64 192
e 64 298
e 64 311
e 65 32
e 65 73
e 65 88
e 65 251
e 65 335
e 66 97
e 66 278
e 66 282
e 66 333
e 66 342
e 67 168
e 67 194
e 67 231
e 67 250
e 67 301
e 68 121
e 68 224
e 68 244
e 68 264
e 68 353
e 69 24
e 69 27
e 69 76
e 69 123
e 69 329
e 70 190
e 70 195
e 70 232
e 70 269
e 70 300
e 71 36
e 71 98
e 71 114
e 71 254
e 71 304
e 72 63
e 72 227
e 72 296
e 72 300
e 72 331
e 73 8
e 73 108
e 73 177
e 73 187
e 73 351
e 74 30
e 74 104
e 74 143
e 74 212
e 74 313
e 75 18
e 75 121
e 75 182
e 75 279
e 75 315
e 76 45
e 76 75
e 76 80
e 76 133
e 76 329
e 77 43
e 77 104
e 77 158
e 77 304
e 77 312
e 78 13
e 78 43
e 78 138
e 78 263
e 78 314
e 79 49
e 79 67
e 79 137
e 79 169
e 79 340
e 80 2
e 80 15
e 80 147
e 80 182
e 80 333
e 81 46
e 81 216
e 81 241
e 81 313
e 81 358
e 82 27
e 82 45
e 82 177
e 82 265
e 82 358
e 83 81
e 83 154
e 83 286
e 83 312
e 83 358
e 84 5
e 84 259
e 84 272
e 84 275
e 84 301
e 85 108
e 85 124
e 85 218
e 85 227
e 85 326
e 86 23
e 86 137
e 86 180
e 86 191
e 86 213
e 87 10
e 87 42
e 87 57
e 87 75
e 87 118
e 88 48
e 88 103
e 88 197
e 88 223
e 88 351
e 89 92
e 89 104
e 89 232
e 89 318
e 89 350
e 90 8
e 90 25
e 90 161
e 90 166
e 90 187
e 91 37
e 91 86
e 91 139
e 91 163
e 91 250
e 92 38
e 92 209
e 92 270
e 92 309
e 92 322
e 93 70
e 93 195
e 93 265
e 93 324
e 93 333
e 94 26
e 94 37
e 94 109
e 94 307
e 94 316
e 95 67
e 95 111
e 95 168
e 95 301
e 95 306
e 96 20
e 96 30
e 96 271
e 96 289
e 96 316
e 97 48
e 97 228
e 97 241
e 97 261
e 97 268
e 98 46
e 98 55
e 98 65
e 98 68
e 98 151
e 99 25
e 99 80
e 99 126
e 99 261
e 99 333
e 100 78
e 100 181
e 100 219
e 100 288
e 100 298
e 101 74
e 101 86
e 101 123
e 101 133
e 101 153
e 102 41
e 102 148
e 102 207
e 102 262
e 102 292
e 103 14
e 103 14
e 103 86
e 103 152
e 103 344
e 104 82
e 104 156
e 104 181
e 104 265
e 104 299
e 105 17
e 105 24
e 105 78
e 105 199
e 105 221
e 106 13
e 106 62
e 106 142
e 106 161
e 106 333
e 107 57
e 107 114
e 107 273
e 107 275
e 107 317
e 108 74
e 108 93
e 108 166
e 108 191
e 108 211
e 109 57
e 109 131
e 109 156
e 109 195
e 109 196
e 110 135
e 110 215
e 110 236
e 110 241
e 110 300
e 111 21
e 111 27
e 111 79
e 111 92
e 111 185
e 112 160
e 112 176
e 112 199
e 112 291
e 112 321
e 113 38
e 113 148
e 113 225
e 113 253
e 113 337
e 114 51
e 114 53
e 114 109
e 114 161
e 114 180
e 115 24
e 115 122
e 115 146
e 115 195
e 115 312
e 116 14
e 116 45
e 116 73
e 116 97
e 116 152
e 117 19
e 117 129
e 117 165
e 117 208
e 117 354
e 118 83
e 118 136
e 118 168
e 118 319
e 118 341
e 119 60
e 119 143
e 119 156
e 119 203
e 119 236
e 120 34
e 120 80
e 120 91
e 120 104
e 120 274
e 121 35
e 121 82
e 121 293
e 121 343
e 121 350
e 122 16
e 122 94
e 122 111
e 122 272
e 122 298
e 123 23
e 123 62
e 123 80
e 123 106
e 123 271
e 124 43
e 124 75
e 124 95
e 124 239
e 124 271
e 125 62
e 125 155
e 125 201
e 125 223
e 125 237
e 126 218
e 126 219
e 126 230
e 126 252
e 126 257
e 127 9
e 127 34
e 127 100
e 127 124
e 127 277
e 128 4
e 128 7
e 128 245
e 128 321
e 128 350
e 129 146
e 129 177
e 129 256
e 129 270
e 129 310
e 130 21
e 130 143
e 130 198
e 130 221
e 130 360
e 131 164
e 131 220
e 131 247
e 131 285
e 131 314
e 132 55
e 132 78
e 132 261
e 132 314
e 132 340
e 133 11
e 133 49
e 133 100
e 133 278
e 133 291
e 134 20
e 134 133
e 134 168
e 134 175
e 134 262
e 135 48
e 135 146
e 135 149
e 135 175
e 135 296
e 136 8
e 136 30
e 136 36
e 136 206
e 136 322
e 137 49
e 137 116
e 137 163
e 137 254
e 137 317
e 138 8
e 138 102
e 138 198
e 138 247
e 138 306
e 139 106
e 139 218
e 139 221
e 139 265
e 139 321
e 140 147
e 140 196
e 140 215
e 140 292
e 140 340
e 141 78
e 141 208
e 141 225
e 141 257
e 141 359
e 142 38
e 142 97
e 142 119
e 142 265
e 142 303
e 143 9
e 143 85
e 143 88
e 143 117
e 143 311
e 144 49
e 144 93
e 144 150
e 144 323
e 144 346
e 145 20
e 145 197
e 145 310
e 145 327
e 145 330
e 146 149
e 146 216
e 146 299
e 146 314
e 146 317
e 147 75
e 147 124
e 147 188
e 147 193
e 147 242
e 148 26
e 148 28
e 148 103
e 148 109
e 148 289
e 149 24
e 149 215
e 149 232
e 149 306
e 149 337
e 150 61
e 150 82
e 150 134
e 150 174
e 150 359
e 151 17
e 151 32
e 151 109
e 151 250
e 151 341
e 152 23
e 152 30
e 152 84
e 152 249
e 152 268
e 153 93
e 153 105
e 153 176
e 153 265
e 153 359
e 154 86
e 154 150
e 154 242
e 154 275
e 154 337
e 155 148
e 155 274
e 155 278
e 155 349
e 155 355
e 156 167
e 156 231
e 156 248
e 156 254
e 156 303
e 157 22
e 157 37
e 157 48
e 157 198
e 157 351
e 158 43
e 158 129
e 158 130
e 158 146
e 158 170
e 159 32
e 159 152
e 159 229
e 159 255
e 159 291
e 160 15
e 160 39
e 160 59
e 160 156
e 160 279
e 161 12
e 161 26
e 161 35
e 161 111
e 161 184
e 162 125
e 162 132
e 162 163
e 162 298
e 162 309
e 163 45
e 163 87
e 163 119
e 163 244
e 163 274
e 164 12
e 164 114
e 164 155
e 164 165
e 164 261
e 165 33
e 165 99
e 165 170
e 165 191
e 165 330
e 166 51
e 166 64
e 166 116
e 166 161
e 166 232
e 167 49
e 167 163
e 167 215
e 167 242
e 167 289
e 168 37
e 168 62
e 168 199
e 168 274
e 168 285
e 169 44
e 169 82
e 169 129
e 169 180
e 169 348
e 170 68
e 170 78
e 170 176
e 170 255
e 170 298
e 171 24
e 171 92
e 171 169
e 171 256
e 171 312
e 172 65
e 172 125
e 172 156
e 172 283
e 172 302
e 173 98
e 173 130
e 173 223
e 173 260
e 173 345
e 174 66
e 174 210
e 174 217
e 174 251
e 174 304
e 175 92
e 175 128
e 175 183
e 175 280
e 175 299
e 176 9
e 176 62
e 176 65
e 176 245
e 176 287
e 177 91
e 177 156
e 177 168
e 177 245
e 177 337
e 178 116
e 178 152
e 178 182
e 178 205
e 178 236
e 179 77
e 179 187
e 179 232
e 179 243
e 179 335
e 180 92
e 180 123
e 180 132
e 180 165
e 180 356
e 181 90
e 181 94
e 181 150
e 181 238
e 181 267
e 182 30
e 182 128
e 182 159
e 182 262
e 182 299
e 183 15
e 183 30
e 183 145
e 183 298
e 183 310
e 184 52
e 184 131
e 184 268
e 184 306
e 184 323
e 185 76
e 185 247
e 185 299
e 185 323
e 185 356
e 186 16
e 186 154
e 186 183
e 186 300
e 186 310
e 187 119
e 187 164
e 187 192
e 187 235
e 187 241
e 188 18
e 188 199
e 188 328
e 188 346
e 188 357
e 189 105
e 189 117
e 189 127
e 189 164
e 189 307
e 190 1
e 190 19
e 190 126
e 190 143
e 190 322
e 191 11
e 191 29
e 191 63
e 191 240
e 191 280
e 192 26
e 192 52
e 192 148
e 192 159
e 192 242
e 193 95
e 193 216
e 193 230
e 193 246
e 193 277
e 194 29
e 194 103
e 194 106
e 194 149
e 194 195
e 195 27
e 195 93
e 195 135
e 195 140
e 195 255
e 196 78
e 196 144
e 196 256
e 196 283
e 196 333
e 197 13
e 197 136
e 197 270
e 197 329
e 197 355
e 198 31
e 198 35
e 198 64
e 198 329
e 198 344
e 199 12
e 199 142
e 199 182
e 199 208
e 199 295
e 200 43
e 200 128
e 200 218
e 200 319
e 200 355
e 201 89
e 201 104
e 201 175
e 201 237
e 201 338
e 202 68
e 202 137
e 202 149
e 202 170
e 202 350
e 203 44
e 203 191
e 203 194
e 203 242
e 203 272
e 204 71
e 204 87
e 204 116
e 204 124
e 204 337
e 205 99
e 205 118
e 205 152
e 205 155
e 205 324
e 206 1
e 206 120
e 206 182
e 206 293
e 206 307
e 207 116
e 207 191
e 207 200
e 207 233
e 207 243
e 208 24
e 208 155
e 208 191
e 208 194
e 208 333
e 209 31
e 209 157
e 209 237
e 209 308
e 209 350
e 210 26
e 210 40
e 210 57
e 210 139
e 210 223
e 211 183
e 211 193
e 211 251
e 211 298
e 211 329
e 212 55
e 212 62
e 212 99
e 212 217
e 212 293
e 213 25
e 213 25
e 213 129
e 213 240
e 213 305
e 214 78
e 214 137
e 214 159
e 214 232
e 214 307
e 215 9
e 215 65
e 215 71
e 215 259
e 215 264
e 216 58
e 216 72
e 216 129
e 216 217
e 216 270
e 217 77
e 217 78
e 217 115
e 217 180
e 217 321
e 218 54
e 218 135
e 218 186
e 218 215
e 218 360
e 219 141
e 219 184
e 219 257
e 219 351
e 219 355
e 220 83
e 220 110
e 220 135
e 220 156
e 220 279
e 221 31
e 221 102
e 221 112
e 221 284
e 221 323
e 222 109
e 222 194
e 222 221
e 222 239
e 222 264
e 223 39
e 223 45
e 223 119
e 223 297
e 223 314
e 224 43
e 224 53
e 224 62
e 224 242
e 224 329
e 225 120
e 225 160
e 225 160
e 225 289
e 225 318
e 226 22
e 226 45
e 226 200
e 226 213
e 226 254
e 227 17
e 227 75
e 227 100
e 227 209
e 227 239
e 228 102
e 228 257
e 228 262
e 228 331
e 228 343
e 229 14
e 229 127
e 229 293
e 229 358
e 229 359
e 230 38
e 230 38
e 230 237
e 230 261
e 230 354
e 231 57
e 231 172
e 231 209
e 231 352
e 231 355
e 232 34
e 232 68
e 232 140
e 232 147
e 232 170
e 233 25
e 233 99
e 233 279
e 233 280
e 233 359
e 234 43
e 234 117
e 234 142
e 234 172
e 234 311
e 235 37
e 235 60
e 235 257
e 235 351
e 235 359
e 236 31
e 236 205
e 236 255
e 236 275
e 236 323
e 237 17
e 237 90
e 237 193
e 237 253
e 237 315
e 238 129
e 238 139
e 238 325
e 238 353
e 238 356
e 239 57
e 239 136
e 239 216
e 239 275
e 239 284
e 240 121
e 240 145
e 240 214
e 240 311
e 240 325
e 241 69
e 241 238
e 241 295
e 241 312
e 241 323
e 242 19
e 242 31
e 242 107
e 242 134
e 242 252
e 243 14
e 243 166
e 243 196
e 243 241
e 243 261
e 244 31
e 244 47
e 244 155
e 244 318
e 244 339
e 245 48
e 245 48
e 245 185
e 245 223
e 245 234
e 246 187
e 246 226
e 246 275
e 246 320
e 246 323
e 247 70
e 247 73
e 247 109
e 247 284
e 247 313
e 248 34
e 248 194
e 248 195
e 248 217
e 248 229
e 249 24
e 249 50
e 249 106
e 249 146
e 249 152
e 250 32
e 250 54
e 250 124
e 250 130
e 250 295
e 251 3
e 251 66
e 251 162
e 251 237
e 251 314
e 252 27
e 252 33
e 252 108
e 252 282
e 252 344
e 253 166
e 253 217
e 253 255
e 253 307
e 253 313
e 254 82
e 254 93
e 254 147
e 254 242
e 254 266
e 255 68
e 255 101
e 255 163
e 255 256
e 255 338
e 256 67
e 256 90
e 256 107
e 256 296
e 256 319
e 257 41
e 257 90
e 257 91
e 257 130
e 257 244
e 258 25
e 258 37
e 258 183
e 258 187
e 258 273
e 259 27
e 259 116
e 259 136
e 259 290
e 259 338
e 260 57
e 260 142
e 260 237
e 260 291
e 260 321
e 261 10
e 261 50
e 261 131
e 261 190
e 261 320
e 262 28
e 262 53
e 262 111
e 262 215
e 262 269
e 263 58
e 263 116
e 263 154
e 263 155
e 263 246
e 264 90
e 264 145
e 264 184
e 264 223
e 264 295
e 265 130
e 265 166
e 265 224
e 265 235
e 265 315
e 266 47
e 266 54
e 266 132
e 266 144
e 266 310
e 267 30
e 267 125
e 267 159
e 267 169
e 267 321
e 268 17
e 268 41
e 268 183
e 268 352
e 268 358
e 269 43
e 269 142
e 269 194
e 269 258
e 269 334
e 270 80
e 270 253
e 270 280
e 270 286
e 270 311
e 271 68
e 271 69
e 271 74
e 271 216
e 271 252
e 272 35
e 272 36
e 272 120
e 272 162
e 272 269
e 273 25
e 273 71
e 273 143
e 273 202
e 273 321
e 274 23
e 274 54
e 274 125
e 274 182
e 274 304
e 275 45
e 275 114
e 275 165
e 275 264
e 275 347
e 276 129
e 276 152
e 276 226
e 276 282
e 276 317
e 277 182
e 277 194
e 277 207
e 277 269
e 277 359
e 278 158
e 278 250
e 278 256
e 278 291
e 278 346
e 279 13
e 279 26
e 279 72
e 279 225
e 279 325
e 280 51
e 280 232
e 280 240
e 280 281
e 280 296
e 281 130
e 281 209
e 281 305
e 281 328
e 281 353
e 282 24
e 282 154
e 282 253
e 282 286
e 282 349
e 283 140
e 283 159
e 283 181
e 283 297
e 283 311
e 284 123
e 284 125
e 284 140
e 284 232
e 284 323
e 285 63
e 285 176
e 285 206
e 285 210
e 285 310
e 286 107
e 286 204
e 286 297
e 286 306
e 286 353
e 287 16
e 287 102
e 287 189
e 287 229
e 287 310
e 288 5
e 288 37
e 288 60
e 288 96
e 288 151
e 289 4
e 289 16
e 289 118
e 289 204
e 289 214
e 290 96
e 290 141
e 290 157
e 290 300
e 290 303
e 291 28
e 291 49
e 291 122
e 291 169
e 291 264
e 292 20
e 292 22
e 292 25
e 292 225
e 292 308
e 293 24
e 293 40
e 293 46
e 293 87
e 293 198
e 294 134
e 294 206
e 294 227
e 294 311
e 294 315
e 295 71
e 295 139
e 295 289
e 295 328
e 295 352
e 296 5
e 296 307
e 296 309
e 296 325
e 296 350
e 297 9
e 297 42
e 297 95
e 297 150
e 297 314
e 298 20
e 298 37
e 298 117
e 298 204
e 298 266
e 299 25
e 299 47
e 299 205
e 299 259
e 299 324
e 300 40
e 300 49
e 300 137
e 300 257
e 300 355
e 301 8
e 301 63
e 301 74
e 301 143
e 301 318
e 302 18
e 302 97
e 302 129
e 302 162
e 302 329
e 303 39
e 303 56
e 303 118
e 303 222
e 303 257
e 304 6
e 304 47
e 304 189
e 304 345
e 304 355
e 305 3
e 305 39
e 305 91
e 305 141
e 305 354
e 306 13
e 306 48
e 306 244
e 306 278
e 306 318
e 307 5
e 307 42
e 307 140
e 307 230
e 307 291
e 308 60
e 308 67
e 308 81
e 308 239
e 308 345
e 309 16
e 309 21
e 309 25
e 309 177
e 309 222
e 310 65
e 310 246
e 310 305
e 310 349
e 310 353
e 311 119
e 311 263
e 311 294
e 311 339
e 311 347
e 312 25
e 312 118
e 312 162
e 312 288
e 312 356
e 313 38
e 313 174
e 313 201
e 313 315
e 313 349
e 314 1
e 314 73
e 314 163
e 314 235
e 314 316
e 315 32
e 315 95
e 315 154
e 315 276
e 315 276
e 316 93
e 316 142
e 316 229
e 316 244
e 316 277
e 317 23
e 317 60
e 317 117
e 317 162
e 317 265
e 318 115
e 318 236
e 318 266
e 318 268
e 318 341
e 319 31
e 319 105
e 319 118
e 319 169
e 319 329
e 320 14
e 320 51
e 320 70
e 320 100
e 320 130
e 321 192
e 321 202
e 321 238
e 321 320
e 321 320
e 322 102
e 322 112
e 322 123
e 322 157
e 322 354
e 323 127
e 323 149
e 323 175
e 323 257
e 323 259
e 324 10
e 324 35
e 324 39
e 324 200
e 324 241
e 325 81
e 325 94
e 325 229
e 325 301
e 325 331
e 326 1
e 326 55
e 326 176
e 326 195
e 326 217
e 327 4
e 327 171
e 327 185
e 327 310
e 327 350
e 328 41
e 328 54
e 328 186
e 328 229
e 328 270
e 329 28
e 329 54
e 329 60
e 329 163
e 329 184
e 330 173
e 330 179
e 330 202
e 330 274
e 330 285
e 331 7
e 331 171
e 331 181
e 331 219
e 331 327
e 332 2
e 332 79
e 332 181
e 332 291
e 332 307
e 333 24
e 333 121
e 333 135
e 333 169
e 333 259
e 334 25
e 334 246
e 334 257
e 334 325
e 334 325
e 335 121
e 335 135
e 335 209
e 335 249
e 335 276
e 336 16
e 336 34
e 336 47
e 336 60
e 336 61
e 337 75
e 337 75
e 337 117
e 337 209
e 337 355
e 338 39
e 338 51
e 338 66
e 338 231
e 338 295
e 339 133
e 339 142
e 339 209
e 339 211
e 339 296
e 340 29
e 340 72
e 340 254
e 340 261
e 340 288
e 341 62
e 341 223
e 341 233
e 341 287
e 341 327
e 342 85
e 342 86
e 342 251
e 342 257
e 342 341
e 343 166
e 343 172
e 343 199
e 343 313
e 343 333
e 344 19
e 344 99
e 344 100
e 344 132
e 344 187
e 345 3
e 345 90
e 345 94
e 345 120
e 345 133
e 346 4
e 346 58
e 346 245
e 346 285
e 346 286
e 347 66
e 347 113
e 347 140
e 347 191
e 347 212
e 348 6
e 348 9
e 348 40
e 348 268
e 348 336
e 349 67
e 349 70
e 349 88
e 349 312
e 349 326
e 350 21
e 350 24
e 350 50
e 350 189
e 350 216
e 351 27
e 351 138
e 351 255
e 351 259
e 351 273
e 352 8
e 352 12
e 352 30
e 352 85
e 352 217
e 353 21
e 353 91
e 353 306
e 353 337
e 353 349
e 354 64
e 354 171
e 354 235
e 354 247
e 354 340
e 355 13
e 355 48
e 355 193
e 355 246
e 355 313
e 356 53
e 356 122
e 356 168
e 356 273
e 356 285
e 357 81
e 357 203
e 357 238
e 357 246
e 357 351
e 358 53
e 358 74
e 358 159
e 358 264
e 358 296
e 359 143
e 359 198
e 359 278
e 359 322
e 359 332
e 360 6
e 360 81
e 360 126
e 360 234
e 360 343
